NAME : A_O14
COMMENT : drilling problem (Ludwig)
TYPE : TSP
DIMENSION : 15
EDGE_WEIGHT_TYPE : EUC_2D
NODE_COORD_SECTION
 1 178 319
 2 153 129
 3 71 126
 4 302 151
 5 33 121
 6 34 303
 7 498 247
 8 455 476
 9 248 389
 10 54 203
 11 390 28
 12 124 401
 13 342 426
 14 159 142
 15 287 199
EOF
